problems/csplib-prob056/sonet-models/noch/O2/lingeling/model_2_1-s3ring06-solution000001.solution
language Essence 1.3

letting network be mset({}, {1, 2, 3, 4, 12}, {2, 5, 6, 7, 9}, {3}, {3, 7, 9, 11, 12}, {4, 6, 8, 10, 13}, {4, 9})
$ Here is a simple "visualisation" for the value above.
$ 
$  1  2  3  4 12
$  2  5  6  7  9
$  3
$  3  7  9 11 12
$  4  6  8 10 13
$  4  9

